\* Problem: WFmodel_120203 *\

Maximize
 Objective: + 10 WG(1) + 11 WG(2) + 10 WG(3) + 10 BG(1) + 11 BG(2)
 + 10 BG(3)

Subject To
 C1_1(0): + WB(0) + WG(0) - AVE(0) = -0
 C1_1(1): + WB(1) + WG(1) - AVE(1) = -0
 C1_1(2): + WB(2) + WG(2) - AVE(2) = -0
 C1_1(3): + WB(3) + WG(3) - AVE(3) = -0
 C1_2(0): + AVE(0) = -0
 C1_2(1): + AVE(1) = 13622.213206644
 C1_2(2): + AVE(2) = 13622.107277268
 C1_2(3): + AVE(3) = 13622.226447816
 C2_1_1_1(0,0): - 0.98 WG(0) - 0.98 BG(0) + 1000000 d11(0,0) <= 1000000
 C2_1_1_1(1,1): - 0.98 WG(1) - 0.98 BG(1) + 1000000 d11(1,1)
 <= 986758.828
 C2_1_1_1(1,2): - 0.98 WG(1) - 0.98 BG(1) + 1000000 d11(1,2)
 <= 894070.624
 C2_1_1_1(2,3): - 0.98 WG(2) - 0.98 BG(2) + 1000000 d11(2,3)
 <= 986758.828
 C2_1_1_1(2,4): - 0.98 WG(2) - 0.98 BG(2) + 1000000 d11(2,4)
 <= 894070.624
 C2_1_1_1(2,5): - 0.98 WG(2) - 0.98 BG(2) + 1000000 d11(2,5)
 <= 986758.828
 C2_1_1_1(2,6): - 0.98 WG(2) - 0.98 BG(2) + 1000000 d11(2,6)
 <= 894070.624
 C2_1_1_1(3,7): - 0.98 WG(3) - 0.98 BG(3) + 1000000 d11(3,7)
 <= 986758.828
 C2_1_1_1(3,8): - 0.98 WG(3) - 0.98 BG(3) + 1000000 d11(3,8)
 <= 894070.624
 C2_1_1_1(3,9): - 0.98 WG(3) - 0.98 BG(3) + 1000000 d11(3,9)
 <= 986758.828
 C2_1_1_1(3,10): - 0.98 WG(3) - 0.98 BG(3) + 1000000 d11(3,10)
 <= 894070.624
 C2_1_1_1(3,11): - 0.98 WG(3) - 0.98 BG(3) + 1000000 d11(3,11)
 <= 986758.828
 C2_1_1_1(3,12): - 0.98 WG(3) - 0.98 BG(3) + 1000000 d11(3,12)
 <= 894070.624
 C2_1_1_1(3,13): - 0.98 WG(3) - 0.98 BG(3) + 1000000 d11(3,13)
 <= 986758.828
 C2_1_1_1(3,14): - 0.98 WG(3) - 0.98 BG(3) + 1000000 d11(3,14)
 <= 894070.624
 C2_1_1_2(0,0): + 0.98 WG(0) + 0.98 BG(0) - 1000000 d11(0,0) <= -0
 C2_1_1_2(1,1): + 0.98 WG(1) + 0.98 BG(1) - 1000000 d11(1,1)
 <= 13241.172
 C2_1_1_2(1,2): + 0.98 WG(1) + 0.98 BG(1) - 1000000 d11(1,2)
 <= 105929.376
 C2_1_1_2(2,3): + 0.98 WG(2) + 0.98 BG(2) - 1000000 d11(2,3)
 <= 13241.172
 C2_1_1_2(2,4): + 0.98 WG(2) + 0.98 BG(2) - 1000000 d11(2,4)
 <= 105929.376
 C2_1_1_2(2,5): + 0.98 WG(2) + 0.98 BG(2) - 1000000 d11(2,5)
 <= 13241.172
 C2_1_1_2(2,6): + 0.98 WG(2) + 0.98 BG(2) - 1000000 d11(2,6)
 <= 105929.376
 C2_1_1_2(3,7): + 0.98 WG(3) + 0.98 BG(3) - 1000000 d11(3,7)
 <= 13241.172
 C2_1_1_2(3,8): + 0.98 WG(3) + 0.98 BG(3) - 1000000 d11(3,8)
 <= 105929.376
 C2_1_1_2(3,9): + 0.98 WG(3) + 0.98 BG(3) - 1000000 d11(3,9)
 <= 13241.172
 C2_1_1_2(3,10): + 0.98 WG(3) + 0.98 BG(3) - 1000000 d11(3,10)
 <= 105929.376
 C2_1_1_2(3,11): + 0.98 WG(3) + 0.98 BG(3) - 1000000 d11(3,11)
 <= 13241.172
 C2_1_1_2(3,12): + 0.98 WG(3) + 0.98 BG(3) - 1000000 d11(3,12)
 <= 105929.376
 C2_1_1_2(3,13): + 0.98 WG(3) + 0.98 BG(3) - 1000000 d11(3,13)
 <= 13241.172
 C2_1_1_2(3,14): + 0.98 WG(3) + 0.98 BG(3) - 1000000 d11(3,14)
 <= 105929.376
 C2_1_2_1(0,0): + 0.98 WG(0) + 0.98 BG(0) + 1000000 d11(0,0) - y1(0,0)
 <= 1000000
 C2_1_2_1(1,1): + 0.98 WG(1) + 0.98 BG(1) + 1000000 d11(1,1) - y1(1,1)
 <= 1013241.172
 C2_1_2_1(1,2): + 0.98 WG(1) + 0.98 BG(1) + 1000000 d11(1,2) - y1(1,2)
 <= 1105929.376
 C2_1_2_1(2,3): + 0.98 WG(2) + 0.98 BG(2) + 1000000 d11(2,3) - y1(2,3)
 <= 1013241.172
 C2_1_2_1(2,4): + 0.98 WG(2) + 0.98 BG(2) + 1000000 d11(2,4) - y1(2,4)
 <= 1105929.376
 C2_1_2_1(2,5): + 0.98 WG(2) + 0.98 BG(2) + 1000000 d11(2,5) - y1(2,5)
 <= 1013241.172
 C2_1_2_1(2,6): + 0.98 WG(2) + 0.98 BG(2) + 1000000 d11(2,6) - y1(2,6)
 <= 1105929.376
 C2_1_2_1(3,7): + 0.98 WG(3) + 0.98 BG(3) + 1000000 d11(3,7) - y1(3,7)
 <= 1013241.172
 C2_1_2_1(3,8): + 0.98 WG(3) + 0.98 BG(3) + 1000000 d11(3,8) - y1(3,8)
 <= 1105929.376
 C2_1_2_1(3,9): + 0.98 WG(3) + 0.98 BG(3) + 1000000 d11(3,9) - y1(3,9)
 <= 1013241.172
 C2_1_2_1(3,10): + 0.98 WG(3) + 0.98 BG(3) + 1000000 d11(3,10)
 - y1(3,10) <= 1105929.376
 C2_1_2_1(3,11): + 0.98 WG(3) + 0.98 BG(3) + 1000000 d11(3,11)
 - y1(3,11) <= 1013241.172
 C2_1_2_1(3,12): + 0.98 WG(3) + 0.98 BG(3) + 1000000 d11(3,12)
 - y1(3,12) <= 1105929.376
 C2_1_2_1(3,13): + 0.98 WG(3) + 0.98 BG(3) + 1000000 d11(3,13)
 - y1(3,13) <= 1013241.172
 C2_1_2_1(3,14): + 0.98 WG(3) + 0.98 BG(3) + 1000000 d11(3,14)
 - y1(3,14) <= 1105929.376
 C2_1_2_2(0,0): - 0.98 WG(0) - 0.98 BG(0) + 1000000 d11(0,0) + y1(0,0)
 <= 1000000
 C2_1_2_2(1,1): - 0.98 WG(1) - 0.98 BG(1) + 1000000 d11(1,1) + y1(1,1)
 <= 986758.828
 C2_1_2_2(1,2): - 0.98 WG(1) - 0.98 BG(1) + 1000000 d11(1,2) + y1(1,2)
 <= 894070.624
 C2_1_2_2(2,3): - 0.98 WG(2) - 0.98 BG(2) + 1000000 d11(2,3) + y1(2,3)
 <= 986758.828
 C2_1_2_2(2,4): - 0.98 WG(2) - 0.98 BG(2) + 1000000 d11(2,4) + y1(2,4)
 <= 894070.624
 C2_1_2_2(2,5): - 0.98 WG(2) - 0.98 BG(2) + 1000000 d11(2,5) + y1(2,5)
 <= 986758.828
 C2_1_2_2(2,6): - 0.98 WG(2) - 0.98 BG(2) + 1000000 d11(2,6) + y1(2,6)
 <= 894070.624
 C2_1_2_2(3,7): - 0.98 WG(3) - 0.98 BG(3) + 1000000 d11(3,7) + y1(3,7)
 <= 986758.828
 C2_1_2_2(3,8): - 0.98 WG(3) - 0.98 BG(3) + 1000000 d11(3,8) + y1(3,8)
 <= 894070.624
 C2_1_2_2(3,9): - 0.98 WG(3) - 0.98 BG(3) + 1000000 d11(3,9) + y1(3,9)
 <= 986758.828
 C2_1_2_2(3,10): - 0.98 WG(3) - 0.98 BG(3) + 1000000 d11(3,10)
 + y1(3,10) <= 894070.624
 C2_1_2_2(3,11): - 0.98 WG(3) - 0.98 BG(3) + 1000000 d11(3,11)
 + y1(3,11) <= 986758.828
 C2_1_2_2(3,12): - 0.98 WG(3) - 0.98 BG(3) + 1000000 d11(3,12)
 + y1(3,12) <= 894070.624
 C2_1_2_2(3,13): - 0.98 WG(3) - 0.98 BG(3) + 1000000 d11(3,13)
 + y1(3,13) <= 986758.828
 C2_1_2_2(3,14): - 0.98 WG(3) - 0.98 BG(3) + 1000000 d11(3,14)
 + y1(3,14) <= 894070.624
 C2_1_3_1(0,0): - 1000000 d11(0,0) - y1(0,0) <= -0
 C2_1_3_1(1,1): - 1000000 d11(1,1) - y1(1,1) <= -0
 C2_1_3_1(1,2): - 1000000 d11(1,2) - y1(1,2) <= -0
 C2_1_3_1(2,3): - 1000000 d11(2,3) - y1(2,3) <= -0
 C2_1_3_1(2,4): - 1000000 d11(2,4) - y1(2,4) <= -0
 C2_1_3_1(2,5): - 1000000 d11(2,5) - y1(2,5) <= -0
 C2_1_3_1(2,6): - 1000000 d11(2,6) - y1(2,6) <= -0
 C2_1_3_1(3,7): - 1000000 d11(3,7) - y1(3,7) <= -0
 C2_1_3_1(3,8): - 1000000 d11(3,8) - y1(3,8) <= -0
 C2_1_3_1(3,9): - 1000000 d11(3,9) - y1(3,9) <= -0
 C2_1_3_1(3,10): - 1000000 d11(3,10) - y1(3,10) <= -0
 C2_1_3_1(3,11): - 1000000 d11(3,11) - y1(3,11) <= -0
 C2_1_3_1(3,12): - 1000000 d11(3,12) - y1(3,12) <= -0
 C2_1_3_1(3,13): - 1000000 d11(3,13) - y1(3,13) <= -0
 C2_1_3_1(3,14): - 1000000 d11(3,14) - y1(3,14) <= -0
 C2_1_3_2(0,0): - 1000000 d11(0,0) + y1(0,0) <= -0
 C2_1_3_2(1,1): - 1000000 d11(1,1) + y1(1,1) <= -0
 C2_1_3_2(1,2): - 1000000 d11(1,2) + y1(1,2) <= -0
 C2_1_3_2(2,3): - 1000000 d11(2,3) + y1(2,3) <= -0
 C2_1_3_2(2,4): - 1000000 d11(2,4) + y1(2,4) <= -0
 C2_1_3_2(2,5): - 1000000 d11(2,5) + y1(2,5) <= -0
 C2_1_3_2(2,6): - 1000000 d11(2,6) + y1(2,6) <= -0
 C2_1_3_2(3,7): - 1000000 d11(3,7) + y1(3,7) <= -0
 C2_1_3_2(3,8): - 1000000 d11(3,8) + y1(3,8) <= -0
 C2_1_3_2(3,9): - 1000000 d11(3,9) + y1(3,9) <= -0
 C2_1_3_2(3,10): - 1000000 d11(3,10) + y1(3,10) <= -0
 C2_1_3_2(3,11): - 1000000 d11(3,11) + y1(3,11) <= -0
 C2_1_3_2(3,12): - 1000000 d11(3,12) + y1(3,12) <= -0
 C2_1_3_2(3,13): - 1000000 d11(3,13) + y1(3,13) <= -0
 C2_1_3_2(3,14): - 1000000 d11(3,14) + y1(3,14) <= -0
 C2_2_1_1(0,0): + 1.02 WG(0) + 1.02 BG(0) + 1000000 d12(0,0) <= 1000000
 C2_2_1_1(1,1): + 1.02 WG(1) + 1.02 BG(1) + 1000000 d12(1,1)
 <= 1013241.172
 C2_2_1_1(1,2): + 1.02 WG(1) + 1.02 BG(1) + 1000000 d12(1,2)
 <= 1105929.376
 C2_2_1_1(2,3): + 1.02 WG(2) + 1.02 BG(2) + 1000000 d12(2,3)
 <= 1013241.172
 C2_2_1_1(2,4): + 1.02 WG(2) + 1.02 BG(2) + 1000000 d12(2,4)
 <= 1105929.376
 C2_2_1_1(2,5): + 1.02 WG(2) + 1.02 BG(2) + 1000000 d12(2,5)
 <= 1013241.172
 C2_2_1_1(2,6): + 1.02 WG(2) + 1.02 BG(2) + 1000000 d12(2,6)
 <= 1105929.376
 C2_2_1_1(3,7): + 1.02 WG(3) + 1.02 BG(3) + 1000000 d12(3,7)
 <= 1013241.172
 C2_2_1_1(3,8): + 1.02 WG(3) + 1.02 BG(3) + 1000000 d12(3,8)
 <= 1105929.376
 C2_2_1_1(3,9): + 1.02 WG(3) + 1.02 BG(3) + 1000000 d12(3,9)
 <= 1013241.172
 C2_2_1_1(3,10): + 1.02 WG(3) + 1.02 BG(3) + 1000000 d12(3,10)
 <= 1105929.376
 C2_2_1_1(3,11): + 1.02 WG(3) + 1.02 BG(3) + 1000000 d12(3,11)
 <= 1013241.172
 C2_2_1_1(3,12): + 1.02 WG(3) + 1.02 BG(3) + 1000000 d12(3,12)
 <= 1105929.376
 C2_2_1_1(3,13): + 1.02 WG(3) + 1.02 BG(3) + 1000000 d12(3,13)
 <= 1013241.172
 C2_2_1_1(3,14): + 1.02 WG(3) + 1.02 BG(3) + 1000000 d12(3,14)
 <= 1105929.376
 C2_2_1_2(0,0): - 1.02 WG(0) - 1.02 BG(0) - 1000000 d12(0,0) <= -0
 C2_2_1_2(1,1): - 1.02 WG(1) - 1.02 BG(1) - 1000000 d12(1,1)
 <= -13241.172
 C2_2_1_2(1,2): - 1.02 WG(1) - 1.02 BG(1) - 1000000 d12(1,2)
 <= -105929.376
 C2_2_1_2(2,3): - 1.02 WG(2) - 1.02 BG(2) - 1000000 d12(2,3)
 <= -13241.172
 C2_2_1_2(2,4): - 1.02 WG(2) - 1.02 BG(2) - 1000000 d12(2,4)
 <= -105929.376
 C2_2_1_2(2,5): - 1.02 WG(2) - 1.02 BG(2) - 1000000 d12(2,5)
 <= -13241.172
 C2_2_1_2(2,6): - 1.02 WG(2) - 1.02 BG(2) - 1000000 d12(2,6)
 <= -105929.376
 C2_2_1_2(3,7): - 1.02 WG(3) - 1.02 BG(3) - 1000000 d12(3,7)
 <= -13241.172
 C2_2_1_2(3,8): - 1.02 WG(3) - 1.02 BG(3) - 1000000 d12(3,8)
 <= -105929.376
 C2_2_1_2(3,9): - 1.02 WG(3) - 1.02 BG(3) - 1000000 d12(3,9)
 <= -13241.172
 C2_2_1_2(3,10): - 1.02 WG(3) - 1.02 BG(3) - 1000000 d12(3,10)
 <= -105929.376
 C2_2_1_2(3,11): - 1.02 WG(3) - 1.02 BG(3) - 1000000 d12(3,11)
 <= -13241.172
 C2_2_1_2(3,12): - 1.02 WG(3) - 1.02 BG(3) - 1000000 d12(3,12)
 <= -105929.376
 C2_2_1_2(3,13): - 1.02 WG(3) - 1.02 BG(3) - 1000000 d12(3,13)
 <= -13241.172
 C2_2_1_2(3,14): - 1.02 WG(3) - 1.02 BG(3) - 1000000 d12(3,14)
 <= -105929.376
 C2_2_2_1(0,0): - 1.02 WG(0) - 1.02 BG(0) + 1000000 d12(0,0) - y2(0,0)
 <= 1000000
 C2_2_2_1(1,1): - 1.02 WG(1) - 1.02 BG(1) + 1000000 d12(1,1) - y2(1,1)
 <= 986758.828
 C2_2_2_1(1,2): - 1.02 WG(1) - 1.02 BG(1) + 1000000 d12(1,2) - y2(1,2)
 <= 894070.624
 C2_2_2_1(2,3): - 1.02 WG(2) - 1.02 BG(2) + 1000000 d12(2,3) - y2(2,3)
 <= 986758.828
 C2_2_2_1(2,4): - 1.02 WG(2) - 1.02 BG(2) + 1000000 d12(2,4) - y2(2,4)
 <= 894070.624
 C2_2_2_1(2,5): - 1.02 WG(2) - 1.02 BG(2) + 1000000 d12(2,5) - y2(2,5)
 <= 986758.828
 C2_2_2_1(2,6): - 1.02 WG(2) - 1.02 BG(2) + 1000000 d12(2,6) - y2(2,6)
 <= 894070.624
 C2_2_2_1(3,7): - 1.02 WG(3) - 1.02 BG(3) + 1000000 d12(3,7) - y2(3,7)
 <= 986758.828
 C2_2_2_1(3,8): - 1.02 WG(3) - 1.02 BG(3) + 1000000 d12(3,8) - y2(3,8)
 <= 894070.624
 C2_2_2_1(3,9): - 1.02 WG(3) - 1.02 BG(3) + 1000000 d12(3,9) - y2(3,9)
 <= 986758.828
 C2_2_2_1(3,10): - 1.02 WG(3) - 1.02 BG(3) + 1000000 d12(3,10)
 - y2(3,10) <= 894070.624
 C2_2_2_1(3,11): - 1.02 WG(3) - 1.02 BG(3) + 1000000 d12(3,11)
 - y2(3,11) <= 986758.828
 C2_2_2_1(3,12): - 1.02 WG(3) - 1.02 BG(3) + 1000000 d12(3,12)
 - y2(3,12) <= 894070.624
 C2_2_2_1(3,13): - 1.02 WG(3) - 1.02 BG(3) + 1000000 d12(3,13)
 - y2(3,13) <= 986758.828
 C2_2_2_1(3,14): - 1.02 WG(3) - 1.02 BG(3) + 1000000 d12(3,14)
 - y2(3,14) <= 894070.624
 C2_2_2_2(0,0): + 1.02 WG(0) + 1.02 BG(0) + 1000000 d12(0,0) + y2(0,0)
 <= 1000000
 C2_2_2_2(1,1): + 1.02 WG(1) + 1.02 BG(1) + 1000000 d12(1,1) + y2(1,1)
 <= 1013241.172
 C2_2_2_2(1,2): + 1.02 WG(1) + 1.02 BG(1) + 1000000 d12(1,2) + y2(1,2)
 <= 1105929.376
 C2_2_2_2(2,3): + 1.02 WG(2) + 1.02 BG(2) + 1000000 d12(2,3) + y2(2,3)
 <= 1013241.172
 C2_2_2_2(2,4): + 1.02 WG(2) + 1.02 BG(2) + 1000000 d12(2,4) + y2(2,4)
 <= 1105929.376
 C2_2_2_2(2,5): + 1.02 WG(2) + 1.02 BG(2) + 1000000 d12(2,5) + y2(2,5)
 <= 1013241.172
 C2_2_2_2(2,6): + 1.02 WG(2) + 1.02 BG(2) + 1000000 d12(2,6) + y2(2,6)
 <= 1105929.376
 C2_2_2_2(3,7): + 1.02 WG(3) + 1.02 BG(3) + 1000000 d12(3,7) + y2(3,7)
 <= 1013241.172
 C2_2_2_2(3,8): + 1.02 WG(3) + 1.02 BG(3) + 1000000 d12(3,8) + y2(3,8)
 <= 1105929.376
 C2_2_2_2(3,9): + 1.02 WG(3) + 1.02 BG(3) + 1000000 d12(3,9) + y2(3,9)
 <= 1013241.172
 C2_2_2_2(3,10): + 1.02 WG(3) + 1.02 BG(3) + 1000000 d12(3,10)
 + y2(3,10) <= 1105929.376
 C2_2_2_2(3,11): + 1.02 WG(3) + 1.02 BG(3) + 1000000 d12(3,11)
 + y2(3,11) <= 1013241.172
 C2_2_2_2(3,12): + 1.02 WG(3) + 1.02 BG(3) + 1000000 d12(3,12)
 + y2(3,12) <= 1105929.376
 C2_2_2_2(3,13): + 1.02 WG(3) + 1.02 BG(3) + 1000000 d12(3,13)
 + y2(3,13) <= 1013241.172
 C2_2_2_2(3,14): + 1.02 WG(3) + 1.02 BG(3) + 1000000 d12(3,14)
 + y2(3,14) <= 1105929.376
 C2_2_3_1(0,0): - 1000000 d12(0,0) - y2(0,0) <= -0
 C2_2_3_1(1,1): - 1000000 d12(1,1) - y2(1,1) <= -0
 C2_2_3_1(1,2): - 1000000 d12(1,2) - y2(1,2) <= -0
 C2_2_3_1(2,3): - 1000000 d12(2,3) - y2(2,3) <= -0
 C2_2_3_1(2,4): - 1000000 d12(2,4) - y2(2,4) <= -0
 C2_2_3_1(2,5): - 1000000 d12(2,5) - y2(2,5) <= -0
 C2_2_3_1(2,6): - 1000000 d12(2,6) - y2(2,6) <= -0
 C2_2_3_1(3,7): - 1000000 d12(3,7) - y2(3,7) <= -0
 C2_2_3_1(3,8): - 1000000 d12(3,8) - y2(3,8) <= -0
 C2_2_3_1(3,9): - 1000000 d12(3,9) - y2(3,9) <= -0
 C2_2_3_1(3,10): - 1000000 d12(3,10) - y2(3,10) <= -0
 C2_2_3_1(3,11): - 1000000 d12(3,11) - y2(3,11) <= -0
 C2_2_3_1(3,12): - 1000000 d12(3,12) - y2(3,12) <= -0
 C2_2_3_1(3,13): - 1000000 d12(3,13) - y2(3,13) <= -0
 C2_2_3_1(3,14): - 1000000 d12(3,14) - y2(3,14) <= -0
 C2_2_3_2(0,0): - 1000000 d12(0,0) + y2(0,0) <= -0
 C2_2_3_2(1,1): - 1000000 d12(1,1) + y2(1,1) <= -0
 C2_2_3_2(1,2): - 1000000 d12(1,2) + y2(1,2) <= -0
 C2_2_3_2(2,3): - 1000000 d12(2,3) + y2(2,3) <= -0
 C2_2_3_2(2,4): - 1000000 d12(2,4) + y2(2,4) <= -0
 C2_2_3_2(2,5): - 1000000 d12(2,5) + y2(2,5) <= -0
 C2_2_3_2(2,6): - 1000000 d12(2,6) + y2(2,6) <= -0
 C2_2_3_2(3,7): - 1000000 d12(3,7) + y2(3,7) <= -0
 C2_2_3_2(3,8): - 1000000 d12(3,8) + y2(3,8) <= -0
 C2_2_3_2(3,9): - 1000000 d12(3,9) + y2(3,9) <= -0
 C2_2_3_2(3,10): - 1000000 d12(3,10) + y2(3,10) <= -0
 C2_2_3_2(3,11): - 1000000 d12(3,11) + y2(3,11) <= -0
 C2_2_3_2(3,12): - 1000000 d12(3,12) + y2(3,12) <= -0
 C2_2_3_2(3,13): - 1000000 d12(3,13) + y2(3,13) <= -0
 C2_2_3_2(3,14): - 1000000 d12(3,14) + y2(3,14) <= -0
 C3(1,1): + 1.11111111111111 y1(1,1) - 0.95 y2(1,1) + STE(1,1)
 - STE(0,0) = -0
 C3(1,2): + 1.11111111111111 y1(1,2) - 0.95 y2(1,2) - STE(0,0)
 + STE(1,2) = -0
 C3(2,3): + 1.11111111111111 y1(2,3) - 0.95 y2(2,3) - STE(1,1)
 + STE(2,3) = -0
 C3(2,4): + 1.11111111111111 y1(2,4) - 0.95 y2(2,4) - STE(1,1)
 + STE(2,4) = -0
 C3(2,5): + 1.11111111111111 y1(2,5) - 0.95 y2(2,5) - STE(1,2)
 + STE(2,5) = -0
 C3(2,6): + 1.11111111111111 y1(2,6) - 0.95 y2(2,6) - STE(1,2)
 + STE(2,6) = -0
 C3(3,7): + 1.11111111111111 y1(3,7) - 0.95 y2(3,7) - STE(2,3)
 + STE(3,7) = -0
 C3(3,8): + 1.11111111111111 y1(3,8) - 0.95 y2(3,8) - STE(2,3)
 + STE(3,8) = -0
 C3(3,9): + 1.11111111111111 y1(3,9) - 0.95 y2(3,9) - STE(2,4)
 + STE(3,9) = -0
 C3(3,10): + 1.11111111111111 y1(3,10) - 0.95 y2(3,10) - STE(2,4)
 + STE(3,10) = -0
 C3(3,11): + 1.11111111111111 y1(3,11) - 0.95 y2(3,11) - STE(2,5)
 + STE(3,11) = -0
 C3(3,12): + 1.11111111111111 y1(3,12) - 0.95 y2(3,12) - STE(2,5)
 + STE(3,12) = -0
 C3(3,13): + 1.11111111111111 y1(3,13) - 0.95 y2(3,13) - STE(2,6)
 + STE(3,13) = -0
 C3(3,14): + 1.11111111111111 y1(3,14) - 0.95 y2(3,14) - STE(2,6)
 + STE(3,14) = -0
 C4_1_1(0,0): + 1000000 d21(0,0) + STE(0,0) <= 1009450
 C4_1_1(1,1): + 1000000 d21(1,1) + STE(1,1) <= 1009450
 C4_1_1(1,2): + 1000000 d21(1,2) + STE(1,2) <= 1009450
 C4_1_1(2,3): + 1000000 d21(2,3) + STE(2,3) <= 1009450
 C4_1_1(2,4): + 1000000 d21(2,4) + STE(2,4) <= 1009450
 C4_1_1(2,5): + 1000000 d21(2,5) + STE(2,5) <= 1009450
 C4_1_1(2,6): + 1000000 d21(2,6) + STE(2,6) <= 1009450
 C4_1_1(3,7): + 1000000 d21(3,7) + STE(3,7) <= 1009450
 C4_1_1(3,8): + 1000000 d21(3,8) + STE(3,8) <= 1009450
 C4_1_1(3,9): + 1000000 d21(3,9) + STE(3,9) <= 1009450
 C4_1_1(3,10): + 1000000 d21(3,10) + STE(3,10) <= 1009450
 C4_1_1(3,11): + 1000000 d21(3,11) + STE(3,11) <= 1009450
 C4_1_1(3,12): + 1000000 d21(3,12) + STE(3,12) <= 1009450
 C4_1_1(3,13): + 1000000 d21(3,13) + STE(3,13) <= 1009450
 C4_1_1(3,14): + 1000000 d21(3,14) + STE(3,14) <= 1009450
 C4_1_2(0,0): - 1000000 d21(0,0) - STE(0,0) <= -9450
 C4_1_2(1,1): - 1000000 d21(1,1) - STE(1,1) <= -9450
 C4_1_2(1,2): - 1000000 d21(1,2) - STE(1,2) <= -9450
 C4_1_2(2,3): - 1000000 d21(2,3) - STE(2,3) <= -9450
 C4_1_2(2,4): - 1000000 d21(2,4) - STE(2,4) <= -9450
 C4_1_2(2,5): - 1000000 d21(2,5) - STE(2,5) <= -9450
 C4_1_2(2,6): - 1000000 d21(2,6) - STE(2,6) <= -9450
 C4_1_2(3,7): - 1000000 d21(3,7) - STE(3,7) <= -9450
 C4_1_2(3,8): - 1000000 d21(3,8) - STE(3,8) <= -9450
 C4_1_2(3,9): - 1000000 d21(3,9) - STE(3,9) <= -9450
 C4_1_2(3,10): - 1000000 d21(3,10) - STE(3,10) <= -9450
 C4_1_2(3,11): - 1000000 d21(3,11) - STE(3,11) <= -9450
 C4_1_2(3,12): - 1000000 d21(3,12) - STE(3,12) <= -9450
 C4_1_2(3,13): - 1000000 d21(3,13) - STE(3,13) <= -9450
 C4_1_2(3,14): - 1000000 d21(3,14) - STE(3,14) <= -9450
 C4_2_1(0,0): + 1000000 d22(0,0) - STE(0,0) <= 977950
 C4_2_1(1,1): + 1000000 d22(1,1) - STE(1,1) <= 977950
 C4_2_1(1,2): + 1000000 d22(1,2) - STE(1,2) <= 977950
 C4_2_1(2,3): + 1000000 d22(2,3) - STE(2,3) <= 977950
 C4_2_1(2,4): + 1000000 d22(2,4) - STE(2,4) <= 977950
 C4_2_1(2,5): + 1000000 d22(2,5) - STE(2,5) <= 977950
 C4_2_1(2,6): + 1000000 d22(2,6) - STE(2,6) <= 977950
 C4_2_1(3,7): + 1000000 d22(3,7) - STE(3,7) <= 977950
 C4_2_1(3,8): + 1000000 d22(3,8) - STE(3,8) <= 977950
 C4_2_1(3,9): + 1000000 d22(3,9) - STE(3,9) <= 977950
 C4_2_1(3,10): + 1000000 d22(3,10) - STE(3,10) <= 977950
 C4_2_1(3,11): + 1000000 d22(3,11) - STE(3,11) <= 977950
 C4_2_1(3,12): + 1000000 d22(3,12) - STE(3,12) <= 977950
 C4_2_1(3,13): + 1000000 d22(3,13) - STE(3,13) <= 977950
 C4_2_1(3,14): + 1000000 d22(3,14) - STE(3,14) <= 977950
 C4_2_2(0,0): - 1000000 d22(0,0) + STE(0,0) <= 22050
 C4_2_2(1,1): - 1000000 d22(1,1) + STE(1,1) <= 22050
 C4_2_2(1,2): - 1000000 d22(1,2) + STE(1,2) <= 22050
 C4_2_2(2,3): - 1000000 d22(2,3) + STE(2,3) <= 22050
 C4_2_2(2,4): - 1000000 d22(2,4) + STE(2,4) <= 22050
 C4_2_2(2,5): - 1000000 d22(2,5) + STE(2,5) <= 22050
 C4_2_2(2,6): - 1000000 d22(2,6) + STE(2,6) <= 22050
 C4_2_2(3,7): - 1000000 d22(3,7) + STE(3,7) <= 22050
 C4_2_2(3,8): - 1000000 d22(3,8) + STE(3,8) <= 22050
 C4_2_2(3,9): - 1000000 d22(3,9) + STE(3,9) <= 22050
 C4_2_2(3,10): - 1000000 d22(3,10) + STE(3,10) <= 22050
 C4_2_2(3,11): - 1000000 d22(3,11) + STE(3,11) <= 22050
 C4_2_2(3,12): - 1000000 d22(3,12) + STE(3,12) <= 22050
 C4_2_2(3,13): - 1000000 d22(3,13) + STE(3,13) <= 22050
 C4_2_2(3,14): - 1000000 d22(3,14) + STE(3,14) <= 22050
 C5_1(0): + d21(0,0) <= 0.6
 C5_1(1): + 0.995889 d21(1,1) + 0.004111 d21(1,2) <= 0.6
 C5_1(2): + 0.99372 d21(2,3) + 0.002169 d21(2,4) + 0.002169 d21(2,5)
 + 0.001941 d21(2,6) <= 0.6
 C5_1(3): + 0.992122 d21(3,7) + 0.001599 d21(3,8) + 0.001484 d21(3,9)
 + 0.000685 d21(3,10) + 0.001599 d21(3,11) + 0.000571 d21(3,12)
 + 0.000685 d21(3,13) + 0.001256 d21(3,14) <= 0.6
 C5_2(0): + d22(0,0) <= 0.6
 C5_2(1): + 0.995889 d22(1,1) + 0.004111 d22(1,2) <= 0.6
 C5_2(2): + 0.99372 d22(2,3) + 0.002169 d22(2,4) + 0.002169 d22(2,5)
 + 0.001941 d22(2,6) <= 0.6
 C5_2(3): + 0.992122 d22(3,7) + 0.001599 d22(3,8) + 0.001484 d22(3,9)
 + 0.000685 d22(3,10) + 0.001599 d22(3,11) + 0.000571 d22(3,12)
 + 0.000685 d22(3,13) + 0.001256 d22(3,14) <= 0.6
 C6_1: - 0.992122 STE(3,7) - 0.001599 STE(3,8) - 0.001484 STE(3,9)
 - 0.000685 STE(3,10) - 0.001599 STE(3,11) - 0.000571 STE(3,12)
 - 0.000685 STE(3,13) - 0.001256 STE(3,14) <= -12600
 C6_2: + 0.992122 STE(3,7) + 0.001599 STE(3,8) + 0.001484 STE(3,9)
 + 0.000685 STE(3,10) + 0.001599 STE(3,11) + 0.000571 STE(3,12)
 + 0.000685 STE(3,13) + 0.001256 STE(3,14) <= 18900

Bounds
 0 <= d11(0,0) <= 1
 0 <= d11(1,1) <= 1
 0 <= d11(1,2) <= 1
 0 <= d11(2,3) <= 1
 0 <= d11(2,4) <= 1
 0 <= d11(2,5) <= 1
 0 <= d11(2,6) <= 1
 0 <= d11(3,7) <= 1
 0 <= d11(3,8) <= 1
 0 <= d11(3,9) <= 1
 0 <= d11(3,10) <= 1
 0 <= d11(3,11) <= 1
 0 <= d11(3,12) <= 1
 0 <= d11(3,13) <= 1
 0 <= d11(3,14) <= 1
 0 <= d12(0,0) <= 1
 0 <= d12(1,1) <= 1
 0 <= d12(1,2) <= 1
 0 <= d12(2,3) <= 1
 0 <= d12(2,4) <= 1
 0 <= d12(2,5) <= 1
 0 <= d12(2,6) <= 1
 0 <= d12(3,7) <= 1
 0 <= d12(3,8) <= 1
 0 <= d12(3,9) <= 1
 0 <= d12(3,10) <= 1
 0 <= d12(3,11) <= 1
 0 <= d12(3,12) <= 1
 0 <= d12(3,13) <= 1
 0 <= d12(3,14) <= 1
 0 <= d21(0,0) <= 1
 0 <= d21(1,1) <= 1
 0 <= d21(1,2) <= 1
 0 <= d21(2,3) <= 1
 0 <= d21(2,4) <= 1
 0 <= d21(2,5) <= 1
 0 <= d21(2,6) <= 1
 0 <= d21(3,7) <= 1
 0 <= d21(3,8) <= 1
 0 <= d21(3,9) <= 1
 0 <= d21(3,10) <= 1
 0 <= d21(3,11) <= 1
 0 <= d21(3,12) <= 1
 0 <= d21(3,13) <= 1
 0 <= d21(3,14) <= 1
 0 <= d22(0,0) <= 1
 0 <= d22(1,1) <= 1
 0 <= d22(1,2) <= 1
 0 <= d22(2,3) <= 1
 0 <= d22(2,4) <= 1
 0 <= d22(2,5) <= 1
 0 <= d22(2,6) <= 1
 0 <= d22(3,7) <= 1
 0 <= d22(3,8) <= 1
 0 <= d22(3,9) <= 1
 0 <= d22(3,10) <= 1
 0 <= d22(3,11) <= 1
 0 <= d22(3,12) <= 1
 0 <= d22(3,13) <= 1
 0 <= d22(3,14) <= 1
 STE(1,1) free
 STE(0,0) free
 STE(1,2) free
 STE(2,3) free
 STE(2,4) free
 STE(2,5) free
 STE(2,6) free
 STE(3,7) free
 STE(3,8) free
 STE(3,9) free
 STE(3,10) free
 STE(3,11) free
 STE(3,12) free
 STE(3,13) free
 STE(3,14) free

Generals
 d11(0,0)
 d11(1,1)
 d11(1,2)
 d11(2,3)
 d11(2,4)
 d11(2,5)
 d11(2,6)
 d11(3,7)
 d11(3,8)
 d11(3,9)
 d11(3,10)
 d11(3,11)
 d11(3,12)
 d11(3,13)
 d11(3,14)
 d12(0,0)
 d12(1,1)
 d12(1,2)
 d12(2,3)
 d12(2,4)
 d12(2,5)
 d12(2,6)
 d12(3,7)
 d12(3,8)
 d12(3,9)
 d12(3,10)
 d12(3,11)
 d12(3,12)
 d12(3,13)
 d12(3,14)
 d21(0,0)
 d21(1,1)
 d21(1,2)
 d21(2,3)
 d21(2,4)
 d21(2,5)
 d21(2,6)
 d21(3,7)
 d21(3,8)
 d21(3,9)
 d21(3,10)
 d21(3,11)
 d21(3,12)
 d21(3,13)
 d21(3,14)
 d22(0,0)
 d22(1,1)
 d22(1,2)
 d22(2,3)
 d22(2,4)
 d22(2,5)
 d22(2,6)
 d22(3,7)
 d22(3,8)
 d22(3,9)
 d22(3,10)
 d22(3,11)
 d22(3,12)
 d22(3,13)
 d22(3,14)

End
